2 0 2 0
0 0 2 5
1 0 1 0
3 0 1 8
0 1 0 6
5 0 1 13
2 1 3 5
1 1 2 8
4 0 2 13
4 1 1 22
3 1 0 13
1 2 4 13
2 2 5 9
5 1 3 16
5 2 5 19
0 2 1 25
2 3 0 18
2 4 1 31
1 3 5 28
3 2 2 22
5 3 0 28
3 3 3 27
1 4 0 38
0 3 3 31
0 4 5 38
4 2 4 25
4 3 5 41
3 4 4 30
1 5 3 48
4 4 0 48
2 5 4 38
4 5 3 52
5 4 4 45
3 5 5 45
5 5 2 49
0 5 4 49

